p cnf 18 13
-1 -2 10 12 18 0 
-2 10 12 18 0 
-3 -2 10 12 18 0 
-4 13 -2 10 12 18 0 
-5 16 -6 17 -7 -8 -3 18 0 
-9 18 0 
-2 10 12 -3 18 0 
-8 -2 10 12 18 0 
-10 2 12 18 0 
-11 -2 10 12 18 0 
-12 2 10 -5 16 -13 4 18 0 
-14 -3 -2 10 12 18 0 
-15 -16 5 -17 6 18 0 
